Problem:    parte
Rows:       13
Columns:    40 (40 integer, 40 binary)
Non-zeros:  115
Status:     INTEGER OPTIMAL
Objective:  Cost = 154 (MINimum)

   No.   Row name        Activity     Lower bound   Upper bound
------ ------------    ------------- ------------- -------------
     1 Cost                      154                             
     2 OneSlotPerBus[1]
                                   1             1             = 
     3 OneSlotPerBus[2]
                                   1             1             = 
     4 OneSlotPerBus[3]
                                   1             1             = 
     5 OneSlotPerBus[4]
                                   1             1             = 
     6 OneSlotPerBus[5]
                                   1             1             = 
     7 AtMostOneBusPerSlot[1]
                                   1                           1 
     8 AtMostOneBusPerSlot[2]
                                   1                           1 
     9 AtMostOneBusPerSlot[3]
                                   1                           1 
    10 AtMostOneBusPerSlot[4]
                                   1                           1 
    11 AtMostOneBusPerSlot[5]
                                   0                           1 
    12 AtMostOneBusPerSlot[6]
                                   0                           1 
    13 AtMostOneBusPerSlot[7]
                                   0                           1 

   No. Column name       Activity     Lower bound   Upper bound
------ ------------    ------------- ------------- -------------
     1 x[1,1]       *              0             0             1 
     2 x[1,2]       *              0             0             1 
     3 x[1,3]       *              1             0             1 
     4 x[1,4]       *              0             0             1 
     5 x[1,5]       *              0             0             1 
     6 x[1,6]       *              0             0             1 
     7 x[1,7]       *              0             0             1 
     8 x[2,1]       *              0             0             1 
     9 x[2,2]       *              1             0             1 
    10 x[2,3]       *              0             0             1 
    11 x[2,4]       *              0             0             1 
    12 x[2,5]       *              0             0             1 
    13 x[2,6]       *              0             0             1 
    14 x[2,7]       *              0             0             1 
    15 x[3,1]       *              0             0             1 
    16 x[3,2]       *              0             0             1 
    17 x[3,3]       *              0             0             1 
    18 x[3,4]       *              1             0             1 
    19 x[3,5]       *              0             0             1 
    20 x[3,6]       *              0             0             1 
    21 x[3,7]       *              0             0             1 
    22 x[4,1]       *              0             0             1 
    23 x[4,2]       *              0             0             1 
    24 x[4,3]       *              0             0             1 
    25 x[4,4]       *              0             0             1 
    26 x[4,5]       *              0             0             1 
    27 x[4,6]       *              0             0             1 
    28 x[4,7]       *              0             0             1 
    29 x[5,1]       *              1             0             1 
    30 x[5,2]       *              0             0             1 
    31 x[5,3]       *              0             0             1 
    32 x[5,4]       *              0             0             1 
    33 x[5,5]       *              0             0             1 
    34 x[5,6]       *              0             0             1 
    35 x[5,7]       *              0             0             1 
    36 y[1]         *              0             0             1 
    37 y[2]         *              0             0             1 
    38 y[3]         *              0             0             1 
    39 y[4]         *              1             0             1 
    40 y[5]         *              0             0             1 

Integer feasibility conditions:

KKT.PE: max.abs.err = 0.00e+00 on row 0
        max.rel.err = 0.00e+00 on row 0
        High quality

KKT.PB: max.abs.err = 0.00e+00 on row 0
        max.rel.err = 0.00e+00 on row 0
        High quality

End of output
